c FILE /home/rafael/Documents/HappySet/MIHS/inputs/happygen/output/graph_scale_free_k20_p0.5_v100_20241127_083935.txt
c SOURCE This is a scale-free graph formed for the happy graph colouring problem.
c DESCRIPTION It was generated using the problem generator of Rhyd Lewis
c
c GRAPH STATS
c Seed                             = 638195708
c Number of Nodes                  = 100
c Number of colours k              = 20
c Number of pre-assignments        = 50
c Number of links per new node     = 5
c Density                          = 0.0979798
c 
c The degrees of nodes 1 to 100, respectively, are as follows 
c [33, 31, 29, 29, 29, 28, 28, 24, 23, 22, 22, 18, 18, 14, 13, 13, 13, 12, 12, 11, 11, 11, 11, 10, 10, 10, 
c  10, 10, 10, 9, 9, 9, 9, 9, 9, 9, 9, 8, 8, 8, 8, 8, 8, 8, 8, 8, 7, 7, 7, 7, 7, 
c  7, 7, 7, 7, 7, 7, 7, 6, 6, 6, 6, 6, 6, 6, 6, 6, 6, 6, 6, 6, 6, 6, 6, 6, 5, 
c  5, 5, 5, 5, 5, 5, 5, 5, 5, 5, 5, 5, 5, 5, 5, 5, 5, 5, 5, 5, 5, 5, 5, 5] 
c  
p edge 100 485 20
e 1 2
e 1 3
e 1 4
e 1 5
e 1 6
e 1 7
e 1 8
e 1 9
e 1 10
e 1 11
e 1 13
e 1 14
e 1 15
e 1 17
e 1 20
e 1 23
e 1 24
e 1 25
e 1 27
e 1 28
e 1 31
e 1 34
e 1 40
e 1 45
e 1 59
e 1 60
e 1 62
e 1 79
e 1 88
e 1 89
e 1 90
e 1 98
e 1 100
e 2 3
e 2 4
e 2 6
e 2 7
e 2 9
e 2 10
e 2 11
e 2 12
e 2 13
e 2 16
e 2 17
e 2 19
e 2 21
e 2 26
e 2 29
e 2 35
e 2 38
e 2 45
e 2 50
e 2 54
e 2 60
e 2 62
e 2 65
e 2 71
e 2 77
e 2 90
e 2 94
e 2 98
e 2 99
e 2 100
e 3 4
e 3 5
e 3 7
e 3 9
e 3 10
e 3 11
e 3 15
e 3 16
e 3 18
e 3 21
e 3 30
e 3 32
e 3 36
e 3 37
e 3 38
e 3 43
e 3 45
e 3 49
e 3 51
e 3 57
e 3 65
e 3 73
e 3 75
e 3 79
e 3 83
e 3 85
e 3 98
e 4 5
e 4 6
e 4 8
e 4 10
e 4 14
e 4 18
e 4 22
e 4 23
e 4 24
e 4 25
e 4 26
e 4 30
e 4 33
e 4 35
e 4 42
e 4 43
e 4 44
e 4 46
e 4 47
e 4 48
e 4 53
e 4 59
e 4 64
e 4 70
e 4 72
e 4 78
e 5 8
e 5 9
e 5 10
e 5 19
e 5 20
e 5 21
e 5 24
e 5 29
e 5 30
e 5 43
e 5 44
e 5 47
e 5 49
e 5 50
e 5 57
e 5 61
e 5 63
e 5 69
e 5 73
e 5 75
e 5 76
e 5 80
e 5 82
e 5 85
e 5 86
e 5 100
e 6 7
e 6 8
e 6 9
e 6 10
e 6 12
e 6 13
e 6 22
e 6 29
e 6 31
e 6 33
e 6 41
e 6 42
e 6 45
e 6 47
e 6 50
e 6 51
e 6 53
e 6 55
e 6 56
e 6 61
e 6 74
e 6 85
e 6 86
e 6 92
e 6 95
e 7 9
e 7 10
e 7 11
e 7 12
e 7 14
e 7 15
e 7 21
e 7 23
e 7 24
e 7 26
e 7 28
e 7 31
e 7 36
e 7 40
e 7 47
e 7 48
e 7 49
e 7 52
e 7 54
e 7 62
e 7 65
e 7 70
e 7 83
e 7 88
e 8 10
e 8 15
e 8 16
e 8 17
e 8 19
e 8 22
e 8 28
e 8 30
e 8 32
e 8 38
e 8 41
e 8 43
e 8 50
e 8 53
e 8 55
e 8 60
e 8 61
e 8 77
e 8 89
e 8 92
e 9 10
e 9 11
e 9 12
e 9 14
e 9 15
e 9 17
e 9 26
e 9 27
e 9 31
e 9 34
e 9 42
e 9 44
e 9 60
e 9 61
e 9 63
e 9 68
e 9 70
e 10 12
e 10 14
e 10 25
e 10 31
e 10 39
e 10 42
e 10 54
e 10 72
e 10 78
e 10 83
e 10 84
e 10 90
e 10 91
e 11 20
e 11 25
e 11 27
e 11 30
e 11 32
e 11 38
e 11 48
e 11 51
e 11 64
e 11 68
e 11 73
e 11 74
e 11 75
e 11 78
e 11 94
e 11 95
e 11 96
e 12 13
e 12 16
e 12 18
e 12 29
e 12 38
e 12 40
e 12 41
e 12 43
e 12 52
e 12 53
e 12 59
e 12 76
e 12 97
e 13 17
e 13 18
e 13 28
e 13 30
e 13 39
e 13 57
e 13 67
e 13 68
e 13 69
e 13 80
e 13 86
e 13 87
e 13 93
e 13 97
e 14 23
e 14 33
e 14 39
e 14 41
e 14 49
e 14 54
e 14 60
e 14 74
e 14 80
e 15 22
e 15 24
e 15 25
e 15 32
e 15 37
e 15 47
e 15 48
e 15 67
e 16 23
e 16 25
e 16 35
e 16 39
e 16 42
e 16 51
e 16 71
e 16 77
e 16 98
e 17 50
e 17 57
e 17 64
e 17 68
e 17 69
e 17 76
e 17 81
e 17 96
e 18 26
e 18 33
e 18 34
e 18 40
e 18 41
e 18 46
e 18 49
e 18 94
e 19 20
e 19 32
e 19 61
e 19 66
e 19 76
e 19 77
e 19 78
e 19 80
e 19 88
e 20 24
e 20 26
e 20 34
e 20 47
e 20 64
e 20 72
e 20 84
e 21 24
e 21 33
e 21 39
e 21 40
e 21 48
e 21 74
e 21 97
e 22 27
e 22 34
e 22 51
e 22 56
e 22 72
e 22 95
e 22 96
e 23 29
e 23 46
e 23 63
e 23 87
e 23 91
e 23 100
e 24 66
e 24 81
e 24 99
e 25 71
e 25 79
e 25 83
e 25 88
e 26 28
e 26 63
e 26 91
e 26 93
e 27 56
e 27 59
e 27 62
e 27 69
e 27 74
e 27 96
e 28 35
e 28 44
e 28 71
e 28 77
e 28 85
e 29 55
e 29 67
e 29 69
e 29 70
e 29 97
e 30 32
e 30 56
e 30 65
e 31 37
e 31 62
e 31 73
e 31 86
e 32 34
e 32 36
e 32 67
e 33 59
e 33 66
e 33 82
e 33 89
e 34 55
e 34 82
e 34 87
e 35 43
e 35 52
e 35 68
e 35 79
e 35 84
e 36 46
e 36 56
e 36 63
e 36 65
e 36 70
e 36 92
e 37 39
e 37 66
e 37 81
e 37 86
e 37 88
e 37 95
e 38 45
e 38 95
e 38 99
e 39 44
e 39 76
e 40 71
e 40 79
e 40 81
e 41 78
e 41 87
e 41 98
e 42 55
e 42 72
e 42 90
e 43 66
e 43 67
e 44 46
e 44 52
e 44 96
e 45 63
e 45 73
e 45 82
e 46 75
e 46 97
e 46 100
e 47 83
e 48 53
e 48 59
e 49 54
e 49 84
e 50 58
e 50 66
e 51 52
e 51 64
e 52 58
e 52 91
e 53 57
e 53 81
e 54 92
e 54 93
e 55 82
e 55 94
e 56 80
e 56 90
e 57 58
e 57 89
e 58 61
e 58 62
e 58 91
e 58 99
e 60 65
e 64 87
e 67 84
e 68 93
e 69 75
e 70 89
e 71 85
e 72 93
e 73 99
e 74 92
e 75 94
n 12 5
n 22 6
n 25 13
n 28 9
n 30 16
n 35 9
n 36 7
n 39 2
n 40 5
n 42 11
n 47 13
n 48 5
n 49 10
n 50 3
n 53 5
n 57 5
n 59 5
n 60 15
n 61 3
n 62 16
n 63 7
n 64 17
n 66 3
n 67 13
n 69 8
n 70 7
n 73 1
n 74 7
n 75 8
n 77 9
n 78 11
n 80 8
n 81 5
n 82 18
n 83 13
n 85 9
n 86 19
n 87 17
n 88 13
n 90 11
n 91 20
n 92 7
n 93 4
n 94 8
n 95 6
n 96 6
n 97 5
n 98 12
n 99 1
n 100 14
